NAME : instances/clustered-mixed-tsp/instance-96.tsp
COMMENT : No Comment
TYPE : TSP
DIMENSION: 53
EDGE_WEIGHT_TYPE : EUC_2D
NODE_COORD_SECTION
1 213 374 
2 223 388 
3 125 354 
4 145 378 
5 199 438 
6 232 442 
7 114 439 
8 160 411 
9 165 485 
10 215 465 
11 174 414 
12 165 465 
13 89 467 
14 215 445 
15 224 440 
16 186 386 
17 248 377 
18 192 357 
19 146 488 
20 190 473 
21 243 362 
22 117 433 
23 236 450 
24 175 502 
25 215 421 
26 219 354 
27 230 358 
28 141 366 
29 173 387 
30 241 372 
31 211 494 
32 198 419 
33 90 485 
34 105 465 
35 204 349 
36 112 366 
37 243 458 
38 141 478 
39 189 410 
40 205 405 
41 98 357 
42 242 503 
43 204 463 
44 101 415 
45 243 388 
46 127 463 
47 155 365 
48 129 431 
49 219 455 
50 134 382 
51 214 435 
52 182 424 
53 152 363 
EOF
